************************************************************************
file with basedata            : md342_.bas
initial value random generator: 338506259
************************************************************************
projects                      :  1
jobs (incl. supersource/sink ):  22
horizon                       :  160
RESOURCES
  - renewable                 :  2   R
  - nonrenewable              :  2   N
  - doubly constrained        :  0   D
************************************************************************
PROJECT INFORMATION:
pronr.  #jobs rel.date duedate tardcost  MPM-Time
    1     20      0       34       17       34
************************************************************************
PRECEDENCE RELATIONS:
jobnr.    #modes  #successors   successors
   1        1          3           2   3   4
   2        3          3           8  12  13
   3        3          1           5
   4        3          3           7  10  12
   5        3          3           6   9  14
   6        3          3           7  11  15
   7        3          1          16
   8        3          3          10  14  15
   9        3          2          18  21
  10        3          2          18  19
  11        3          2          12  20
  12        3          2          16  19
  13        3          3          16  17  19
  14        3          1          17
  15        3          1          17
  16        3          1          21
  17        3          2          18  21
  18        3          1          20
  19        3          1          22
  20        3          1          22
  21        3          1          22
  22        1          0        
************************************************************************
REQUESTS/DURATIONS:
jobnr. mode duration  R 1  R 2  N 1  N 2
------------------------------------------------------------------------
  1      1     0       0    0    0    0
  2      1     1       7    6    4    0
         2     6       7    5    0    4
         3     7       5    5    0    2
  3      1     7       8    5    0    3
         2     9       4    4    8    0
         3    10       2    4    0    2
  4      1     3       5    8    7    0
         2     3       6    8    4    0
         3     9       5    6    0    3
  5      1     4      10    9    0   10
         2     7       9    5    0    9
         3     8       8    4    8    0
  6      1     1       5    6    0    9
         2     3       4    4    0    3
         3     6       3    3    8    0
  7      1     1       9    5    0    9
         2     7       7    4    0    8
         3    10       5    3    0    8
  8      1     1       9    9    5    0
         2     1       5    9    0    4
         3    10       5    7    0    4
  9      1     9       5    7    3    0
         2    10       5    6    2    0
         3    10       5    7    0    6
 10      1     7       5    5    8    0
         2     7       5    4    0    6
         3    10       5    3    8    0
 11      1     4       8    7    0    5
         2     4       8    6    6    0
         3     5       6    6    0    7
 12      1     4       7    8    0    4
         2     5       6    4    7    0
         3     7       5    1    5    0
 13      1     1       5    9    0    5
         2     1       6    6    0    6
         3     6       4    2    6    0
 14      1     3       8    3    6    0
         2     5       6    3    0    4
         3     6       3    1    0    3
 15      1     7       8    9    7    0
         2    10       6    5    0    3
         3    10       6    5    4    0
 16      1     4      10   10    0    9
         2     5       8    8    5    0
         3     7       8    6    5    0
 17      1     6       8    9    4    0
         2     7       7    5    4    0
         3     9       7    3    3    0
 18      1     5       3    9    5    0
         2     7       3    8    0    3
         3     7       3    8    4    0
 19      1     8       8    7    8    0
         2    10       7    7    0    1
         3    10       6    7    6    0
 20      1     4       9    7   10    0
         2     5       9    6    0    1
         3     8       9    4    9    0
 21      1     3       8    5    0    9
         2     5       4    3    0    8
         3     5       2    4   10    0
 22      1     0       0    0    0    0
************************************************************************
RESOURCEAVAILABILITIES:
  R 1  R 2  N 1  N 2
   24   20   95   78
************************************************************************
MAXIMAL LAGS:
from  to  type  delay
    1   22   ES      0
    1    2   ES      0
    2   22   ES      0
    1    3   ES      0
    3   22   ES      0
    1    4   ES      0
    4   22   ES      0
    1    5   ES      0
    5   22   ES      0
    1    6   ES      0
    6   22   ES      0
    1    7   ES      0
    7   22   ES      0
    1    8   ES      0
    8   22   ES      0
    1    9   ES      0
    9   22   ES      0
    1   10   ES      0
   10   22   ES      0
    1   11   ES      0
   11   22   ES      0
    1   12   ES      0
   12   22   ES      0
    1   13   ES      0
   13   22   ES      0
    1   14   ES      0
   14   22   ES      0
    1   15   ES      0
   15   22   ES      0
    1   16   ES      0
   16   22   ES      0
    1   17   ES      0
   17   22   ES      0
    1   18   ES      0
   18   22   ES      0
    1   19   ES      0
   19   22   ES      0
    1   20   ES      0
   20   22   ES      0
    1   21   ES      0
   21   22   ES      0
    1   22   ES      0
    2    8   SS    -11
    2    8   SE      2
    2    8   ES     -3
    2    8   EE    -11
    2   12   SS     -9
    2   12   SE      3
    2   12   ES      2
    2   12   EE     -1
    2   13   SS    -11
    2   13   SE      7
    2   13   ES      9
    2   13   EE     -1
    3    5   SS     -4
    3    5   SE      1
    3    5   ES     -2
    3    5   EE      9
    4    7   SS     -3
    4    7   SE     12
    4    7   ES    -12
    4    7   EE      5
    4   10   SS     -4
    4   10   SE     -7
    4   10   ES     -3
    4   10   EE     -1
    4   12   SS      1
    4   12   SE    -12
    4   12   ES      2
    4   12   EE     -2
    5    6   SS     -3
    5    6   SE      8
    5    6   ES    -11
    5    6   EE      7
    5    9   SS     -9
    5    9   SE     -1
    5    9   ES     11
    5    9   EE    -11
    5   14   SS      5
    5   14   SE     11
   14    5   SE      0
    5   14   ES      0
    5   14   EE     -5
    6    7   SS     -7
    6    7   SE    -10
    6    7   ES      5
    6    7   EE     -9
    6   11   SS     -8
    6   11   SE     11
    6   11   ES     -8
    6   11   EE      8
    6   15   SS      3
    6   15   SE      1
    6   15   ES     -4
    6   15   EE     -1
    7   16   SS      2
    7   16   SE     10
    7   16   ES      7
    7   16   EE     -5
    8   10   SS     11
    8   10   SE      4
    8   10   ES      6
    8   10   EE      2
    8   14   SS    -11
    8   14   SE    -10
    8   14   ES     -2
    8   14   EE     -1
    8   15   SS    -11
    8   15   SE     -8
    8   15   ES      7
    8   15   EE     11
    9   18   SS      8
    9   18   SE     -9
    9   18   ES      0
    9   18   EE      4
    9   21   SS     11
    9   21   SE    -10
    9   21   ES     -2
    9   21   EE      8
   10   18   SS     11
   10   18   SE     -3
   10   18   ES      1
   10   18   EE      0
   10   19   SS    -12
   10   19   SE     -7
   10   19   ES     11
   10   19   EE     -4
   11   12   SS     11
   11   12   SE      8
   11   12   ES     11
   11   12   EE    -10
   11   20   SS      1
   11   20   SE     -9
   11   20   ES     -6
   11   20   EE      6
   12   16   SS     -4
   12   16   SE     -3
   12   16   ES      7
   12   16   EE      4
   12   19   SS      5
   12   19   SE     -5
   12   19   ES     10
   12   19   EE    -11
   13   16   SS     -1
   13   16   SE      6
   13   16   ES      3
   13   16   EE     -6
   13   17   SS     12
   13   17   SE      1
   13   17   ES     -4
   13   17   EE     11
   13   19   SS     10
   13   19   SE     12
   13   19   ES     -7
   13   19   EE     -4
   14   17   SS      4
   14   17   SE      9
   14   17   ES    -11
   14   17   EE      7
   15   17   SS      0
   15   17   SE     -7
   15   17   ES      9
   15   17   EE     -3
   16   21   SS     -4
   16   21   SE    -12
   16   21   ES      1
   16   21   EE     -6
   17   18   SS    -12
   17   18   SE      1
   17   18   ES      9
   17   18   EE     -8
   17   21   SS     -4
   17   21   SE     -4
   17   21   ES      2
   17   21   EE      7
   18   20   SS      8
   18   20   SE     -2
   18   20   ES     -9
   18   20   EE     -5
************************************************************************
